% Generated by MiniZinc 2.9.3
% Solver library: /home/icwmmarijnisse/Pumpkin/minizinc/lib
% Command line invocation: minizinc --compile --fzn ./instance.fzn --ozn ./instance.ozn --solver pumpkin ../../../../benchmarks/models/tsp/instances/tsp.mzn ../../../../benchmarks/models/tsp/instances/TSP_N10_2.dzn 

predicate pumpkin_circuit(array [int] of var int: x);
array [1..10] of int: X_INTRODUCED_28_ = [0,966,581,898,736,323,218,672,512,406];
array [1..10] of int: X_INTRODUCED_30_ = [966,0,906,937,659,470,147,272,143,253];
array [1..10] of int: X_INTRODUCED_32_ = [581,906,0,763,575,552,270,765,599,439];
array [1..10] of int: X_INTRODUCED_34_ = [898,937,763,0,920,598,409,371,225,142];
array [1..10] of int: X_INTRODUCED_36_ = [736,659,575,920,0,522,506,94,774,49];
array [1..10] of int: X_INTRODUCED_38_ = [323,470,552,598,522,0,882,113,157,643];
array [1..10] of int: X_INTRODUCED_40_ = [218,147,270,409,506,882,0,164,812,697];
array [1..10] of int: X_INTRODUCED_42_ = [672,272,765,371,94,113,164,0,433,611];
array [1..10] of int: X_INTRODUCED_44_ = [512,143,599,225,774,157,812,433,0,66];
array [1..10] of int: X_INTRODUCED_46_ = [406,253,439,142,49,643,697,611,66,0];
array [1..11] of int: X_INTRODUCED_50_ = [1,-1,-1,-1,-1,-1,-1,-1,-1,-1,-1];
var 1..10: X_INTRODUCED_16_;
var 1..10: X_INTRODUCED_17_;
var 1..10: X_INTRODUCED_18_;
var 1..10: X_INTRODUCED_19_;
var 1..10: X_INTRODUCED_20_;
var 1..10: X_INTRODUCED_21_;
var 1..10: X_INTRODUCED_22_;
var 1..10: X_INTRODUCED_23_;
var 1..10: X_INTRODUCED_24_;
var 1..10: X_INTRODUCED_25_;
var 0..8733: Objective:: output_var:: is_defined_var;
var 0..966: X_INTRODUCED_29_ ::var_is_introduced :: is_defined_var;
var 0..966: X_INTRODUCED_31_ ::var_is_introduced :: is_defined_var;
var 0..906: X_INTRODUCED_33_ ::var_is_introduced :: is_defined_var;
var 0..937: X_INTRODUCED_35_ ::var_is_introduced :: is_defined_var;
var 0..920: X_INTRODUCED_37_ ::var_is_introduced :: is_defined_var;
var 0..882: X_INTRODUCED_39_ ::var_is_introduced :: is_defined_var;
var 0..882: X_INTRODUCED_41_ ::var_is_introduced :: is_defined_var;
var 0..765: X_INTRODUCED_43_ ::var_is_introduced :: is_defined_var;
var 0..812: X_INTRODUCED_45_ ::var_is_introduced :: is_defined_var;
var 0..697: X_INTRODUCED_47_ ::var_is_introduced :: is_defined_var;
array [1..10] of var int: Successor:: output_array([1..10]) = [X_INTRODUCED_16_,X_INTRODUCED_17_,X_INTRODUCED_18_,X_INTRODUCED_19_,X_INTRODUCED_20_,X_INTRODUCED_21_,X_INTRODUCED_22_,X_INTRODUCED_23_,X_INTRODUCED_24_,X_INTRODUCED_25_];
array [1..11] of var int: X_INTRODUCED_49_ ::var_is_introduced  = [Objective,X_INTRODUCED_29_,X_INTRODUCED_31_,X_INTRODUCED_33_,X_INTRODUCED_35_,X_INTRODUCED_37_,X_INTRODUCED_39_,X_INTRODUCED_41_,X_INTRODUCED_43_,X_INTRODUCED_45_,X_INTRODUCED_47_];
constraint pumpkin_circuit(Successor);
constraint array_int_element(X_INTRODUCED_16_,X_INTRODUCED_28_,X_INTRODUCED_29_):: defines_var(X_INTRODUCED_29_);
constraint array_int_element(X_INTRODUCED_17_,X_INTRODUCED_30_,X_INTRODUCED_31_):: defines_var(X_INTRODUCED_31_);
constraint array_int_element(X_INTRODUCED_18_,X_INTRODUCED_32_,X_INTRODUCED_33_):: defines_var(X_INTRODUCED_33_);
constraint array_int_element(X_INTRODUCED_19_,X_INTRODUCED_34_,X_INTRODUCED_35_):: defines_var(X_INTRODUCED_35_);
constraint array_int_element(X_INTRODUCED_20_,X_INTRODUCED_36_,X_INTRODUCED_37_):: defines_var(X_INTRODUCED_37_);
constraint array_int_element(X_INTRODUCED_21_,X_INTRODUCED_38_,X_INTRODUCED_39_):: defines_var(X_INTRODUCED_39_);
constraint array_int_element(X_INTRODUCED_22_,X_INTRODUCED_40_,X_INTRODUCED_41_):: defines_var(X_INTRODUCED_41_);
constraint array_int_element(X_INTRODUCED_23_,X_INTRODUCED_42_,X_INTRODUCED_43_):: defines_var(X_INTRODUCED_43_);
constraint array_int_element(X_INTRODUCED_24_,X_INTRODUCED_44_,X_INTRODUCED_45_):: defines_var(X_INTRODUCED_45_);
constraint array_int_element(X_INTRODUCED_25_,X_INTRODUCED_46_,X_INTRODUCED_47_):: defines_var(X_INTRODUCED_47_);
constraint int_lin_eq(X_INTRODUCED_50_,X_INTRODUCED_49_,0):: defines_var(Objective);
solve  minimize Objective;
